10  10
  0  28  1  99  2  63  3  62  4  22  5  80  6  30  7  51  8  53  9  51
  0  67  1  11  2  53  3  21  4  48  5  1  6  14  7  5  8  2  9  48
  0  96  1  17  2  21  3  41  4  66  5  83  6  6  7  67  8  55  9  6
  0  39  1  68  2  98  3  78  4  77  5  96  6  97  7  54  8  88  9  2
  0  99  1  86  2  82  3  71  4  4  5  99  6  12  7  19  8  32  9  85
  0  28  1  81  2  19  3  6  4  38  5  73  6  15  7  44  8  86  9  9
  0  11  1  64  2  59  3  90  4  12  5  49  6  81  7  33  8  38  9  21
  0  66  1  47  2  23  3  83  4  23  5  33  6  22  7  32  8  40  9  32
  0  83  1  18  2  4  3  57  4  20  5  57  6  2  7  84  8  75  9  44
  0  51  1  82  2  14  3  78  4  17  5  20  6  33  7  36  8  36  9  55
